#######################################
### Exact MIP solver for the HHCRSP ###
#######################################
-- Instance file: new-instances/HHCRSP_100_20_64_1.0_R_RC.txt
-- Max threads: 4
-- Time limit: 999999 seconds
-- Use initial solution: No
Trivial flow violations prevented generating 46094 variables.
Model exported.
Version identifier: 20.1.0.0 | 2020-11-10 | 9bedb6d68
CPXPARAM_Threads                                 4
CPXPARAM_TimeLimit                               999999
Parallel mode: deterministic, using up to 4 threads for concurrent optimization:
 * Starting dual Simplex on 1 thread...
 * Starting Barrier on 3 threads...
Tried aggregator 1 time.
LP Presolve eliminated 5106 rows and 1147 columns.
Reduced LP has 45492 rows, 43650 columns, and 502647 nonzeros.
Presolve time = 0.32 sec. (131.93 ticks)
Symmetry aggregator did 45291 additional substitutions.

Iteration log . . .
Iteration:     1   Dual objective     =             0.000000
Iteration:   491   Dual objective     =           189.000000

Dual crossover.
  Dual:  Fixing 303 variables.
      302 DMoves:  Infeasibility  5.38458421e-14  Objective  1.90000380e+02
        0 DMoves:  Infeasibility  3.46944949e-14  Objective  1.90000380e+02
  Dual:  Pushed 11, exchanged 292.
  Primal:  Fixing 110 variables.
      109 PMoves:  Infeasibility  0.00000000e+00  Objective  1.90000380e+02
        0 PMoves:  Infeasibility  0.00000000e+00  Objective  1.90000380e+02
  Primal:  Pushed 66, exchanged 44.

Dual simplex solved model.


Solution status from MIP model:
-- Processing time: 0.63 sec.
-- Memory used: 104.732 MB
-- Best bound: inf
-- Obj value: 190
-- Gap: inf%
-- Total distance: 570.001
-- Total tardiness: 0
-- Largest tardiness: 0
